(set-logic QF_ABV)
(declare-fun rhole_value_arg3_ans_new () (_ BitVec 32))
(declare-fun value_arg1_a () (Array (_ BitVec 32) (_ BitVec 8)))
(declare-fun value_arg2_b () (Array (_ BitVec 32) (_ BitVec 8)))
(declare-fun rhole_value_arg1_a () (_ BitVec 32))
(declare-fun rreturn () (_ BitVec 32))
(declare-fun rhole_value_arg2_b () (_ BitVec 32))
(declare-fun value_arg3_ans_new () (Array (_ BitVec 32) (_ BitVec 8)))
(assert (let ((.def_0 (= rreturn #b00000000000000000000000000000000))) (let ((.def_1 (select value_arg1_a #b00000000000000000000000000000000))) (let ((.def_2 (select value_arg1_a #b00000000000000000000000000000001))) (let ((.def_3 (concat .def_2 .def_1))) (let ((.def_4 (select value_arg1_a #b00000000000000000000000000000010))) (let ((.def_5 (concat .def_4 .def_3))) (let ((.def_6 (select value_arg1_a #b00000000000000000000000000000011))) (let ((.def_7 (concat .def_6 .def_5))) (let ((.def_8 (select value_arg2_b #b00000000000000000000000000000000))) (let ((.def_9 (select value_arg2_b #b00000000000000000000000000000001))) (let ((.def_10 (concat .def_9 .def_8))) (let ((.def_11 (select value_arg2_b #b00000000000000000000000000000010))) (let ((.def_12 (concat .def_11 .def_10))) (let ((.def_13 (select value_arg2_b #b00000000000000000000000000000011))) (let ((.def_14 (concat .def_13 .def_12))) (let ((.def_15 (bvsrem .def_14 .def_7))) (let ((.def_16 (bvsrem .def_7 .def_15))) (let ((.def_17 (= #b00000000000000000000000000000000 .def_16))) (let ((.def_18 (not .def_17))) (let ((.def_19 (bvsrem .def_15 .def_16))) (let ((.def_20 (= #b00000000000000000000000000000000 .def_19))) (let ((.def_21 (not .def_20))) (let ((.def_22 (bvsrem .def_16 .def_19))) (let ((.def_23 (= #b00000000000000000000000000000000 .def_22))) (let ((.def_24 (not .def_23))) (let ((.def_25 (bvsrem .def_19 .def_22))) (let ((.def_26 (= #b00000000000000000000000000000000 .def_25))) (let ((.def_27 (not .def_26))) (let ((.def_28 (bvsrem .def_22 .def_25))) (let ((.def_29 (= #b00000000000000000000000000000000 .def_28))) (let ((.def_30 (not .def_29))) (let ((.def_31 (bvsrem .def_25 .def_28))) (let ((.def_32 (= #b00000000000000000000000000000000 .def_31))) (let ((.def_33 (not .def_32))) (let ((.def_34 (bvsrem .def_28 .def_31))) (let ((.def_35 (= #b00000000000000000000000000000000 .def_34))) (let ((.def_36 (not .def_35))) (let ((.def_37 (select value_arg3_ans_new #b00000000000000000000000000000000))) (let ((.def_38 (select value_arg3_ans_new #b00000000000000000000000000000001))) (let ((.def_39 (concat .def_38 .def_37))) (let ((.def_40 (select value_arg3_ans_new #b00000000000000000000000000000010))) (let ((.def_41 (concat .def_40 .def_39))) (let ((.def_42 (select value_arg3_ans_new #b00000000000000000000000000000011))) (let ((.def_43 (concat .def_42 .def_41))) (let ((.def_44 (= .def_34 .def_43))) (let ((.def_45 (bvsrem .def_31 .def_34))) (let ((.def_46 (= #b00000000000000000000000000000000 .def_45))) (let ((.def_47 (= #b00000000000000000000000000000000 .def_7))) (let ((.def_48 (not .def_47))) (let ((.def_49 (= #b00000000000000000000000000000000 .def_15))) (let ((.def_50 (not .def_49))) (let ((.def_51 (and .def_50 .def_48 .def_46 .def_44 .def_36 .def_33 .def_30 .def_27 .def_24 .def_21 .def_18))) (let ((.def_52 (bvsrem .def_34 .def_45))) (let ((.def_53 (= #b00000000000000000000000000000000 .def_52))) (let ((.def_54 (not .def_53))) (let ((.def_55 (not .def_46))) (let ((.def_56 (bvsrem .def_45 .def_52))) (let ((.def_57 (= #b00000000000000000000000000000000 .def_56))) (let ((.def_58 (not .def_57))) (let ((.def_59 (bvsrem .def_52 .def_56))) (let ((.def_60 (= #b00000000000000000000000000000000 .def_59))) (let ((.def_61 (not .def_60))) (let ((.def_62 (bvsrem .def_56 .def_59))) (let ((.def_63 (= #b00000000000000000000000000000000 .def_62))) (let ((.def_64 (not .def_63))) (let ((.def_65 (bvsrem .def_59 .def_62))) (let ((.def_66 (= #b00000000000000000000000000000000 .def_65))) (let ((.def_67 (not .def_66))) (let ((.def_68 (bvsrem .def_62 .def_65))) (let ((.def_69 (bvsrem .def_65 .def_68))) (let ((.def_70 (= #b00000000000000000000000000000000 .def_69))) (let ((.def_71 (not .def_70))) (let ((.def_72 (= #b00000000000000000000000000000000 .def_68))) (let ((.def_73 (not .def_72))) (let ((.def_74 (bvsrem .def_68 .def_69))) (let ((.def_75 (= #b00000000000000000000000000000000 .def_74))) (let ((.def_76 (and .def_50 .def_48 .def_75 .def_30 .def_73 .def_71 .def_67 .def_64 .def_61 .def_58 .def_55 .def_36 .def_33 .def_54 .def_27 .def_24 .def_21 .def_18))) (let ((.def_77 (= .def_45 .def_43))) (let ((.def_78 (and .def_50 .def_48 .def_77 .def_53 .def_55 .def_36 .def_33 .def_30 .def_27 .def_24 .def_21 .def_18))) (let ((.def_79 (= .def_62 .def_43))) (let ((.def_80 (and .def_50 .def_48 .def_79 .def_30 .def_64 .def_61 .def_58 .def_54 .def_55 .def_36 .def_33 .def_66 .def_27 .def_24 .def_21 .def_18))) (let ((.def_81 (= .def_25 .def_43))) (let ((.def_82 (and .def_50 .def_48 .def_81 .def_29 .def_27 .def_24 .def_21 .def_18))) (let ((.def_83 (= .def_15 .def_43))) (let ((.def_84 (and .def_50 .def_48 .def_83 .def_17))) (let ((.def_85 (= .def_28 .def_43))) (let ((.def_86 (and .def_50 .def_48 .def_85 .def_32 .def_30 .def_27 .def_24 .def_21 .def_18))) (let ((.def_87 (and .def_50 .def_48 .def_70 .def_73 .def_67 .def_64 .def_61 .def_58 .def_54 .def_55 .def_36 .def_33 .def_30 .def_27 .def_24 .def_21 .def_18))) (let ((.def_88 (= .def_52 .def_43))) (let ((.def_89 (and .def_50 .def_48 .def_88 .def_57 .def_54 .def_55 .def_36 .def_33 .def_30 .def_27 .def_24 .def_21 .def_18))) (let ((.def_90 (= .def_16 .def_43))) (let ((.def_91 (and .def_50 .def_48 .def_90 .def_20 .def_18))) (let ((.def_92 (= .def_19 .def_43))) (let ((.def_93 (and .def_50 .def_48 .def_92 .def_23 .def_21 .def_18))) (let ((.def_94 (= .def_56 .def_43))) (let ((.def_95 (and .def_50 .def_48 .def_94 .def_60 .def_58 .def_54 .def_55 .def_36 .def_33 .def_30 .def_27 .def_24 .def_21 .def_18))) (let ((.def_96 (not .def_75))) (let ((.def_97 (bvsrem .def_69 .def_74))) (let ((.def_98 (= #b00000000000000000000000000000000 .def_97))) (let ((.def_99 (and .def_50 .def_48 .def_21 .def_54 .def_98 .def_73 .def_71 .def_67 .def_64 .def_61 .def_58 .def_55 .def_36 .def_33 .def_30 .def_96 .def_27 .def_24 .def_18))) (let ((.def_100 (not .def_98))) (let ((.def_101 (and .def_50 .def_48 .def_21 .def_100 .def_54 .def_73 .def_71 .def_67 .def_64 .def_61 .def_58 .def_55 .def_36 .def_33 .def_30 .def_96 .def_27 .def_24 .def_18))) (let ((.def_102 (= .def_31 .def_43))) (let ((.def_103 (and .def_50 .def_48 .def_35 .def_102 .def_33 .def_30 .def_27 .def_24 .def_21 .def_18))) (let ((.def_104 (= .def_59 .def_43))) (let ((.def_105 (and .def_50 .def_48 .def_55 .def_104 .def_61 .def_58 .def_54 .def_63 .def_36 .def_33 .def_30 .def_27 .def_24 .def_21 .def_18))) (let ((.def_106 (and .def_50 .def_48 .def_72 .def_67 .def_64 .def_61 .def_58 .def_54 .def_55 .def_36 .def_33 .def_30 .def_27 .def_24 .def_21 .def_18))) (let ((.def_107 (= .def_14 .def_43))) (let ((.def_108 (and .def_47 .def_107))) (let ((.def_109 (= .def_22 .def_43))) (let ((.def_110 (and .def_50 .def_48 .def_26 .def_109 .def_24 .def_21 .def_18))) (let ((.def_111 (= .def_7 .def_43))) (let ((.def_112 (and .def_48 .def_111 .def_49))) (let ((.def_113 (or .def_112 .def_110 .def_108 .def_106 .def_105 .def_103 .def_101 .def_99 .def_95 .def_93 .def_91 .def_89 .def_87 .def_86 .def_84 .def_82 .def_80 .def_78 .def_76 .def_51))) (let ((.def_114 (concat .def_42 .def_40))) (let ((.def_115 (concat .def_114 .def_38))) (let ((.def_116 (concat .def_115 .def_37))) (let ((.def_117 (= rhole_value_arg3_ans_new .def_116))) (let ((.def_118 (concat .def_6 .def_4))) (let ((.def_119 (concat .def_118 .def_2))) (let ((.def_120 (concat .def_119 .def_1))) (let ((.def_121 (= rhole_value_arg1_a .def_120))) (let ((.def_122 (concat .def_13 .def_11))) (let ((.def_123 (concat .def_122 .def_9))) (let ((.def_124 (concat .def_123 .def_8))) (let ((.def_125 (= rhole_value_arg2_b .def_124))) (let ((.def_126 (and .def_125 .def_121 .def_117 .def_113))) (let ((.def_127 (and .def_126 .def_0))) .def_127)))))))))))))))))))))))))))))))))))))))))))))))))))))))))))))))))))))))))))))))))))))))))))))))))))))))))))))))))))))))))))))))))
(check-sat)
